21930
21931
21932
21933
21934
20930
20931
21510.2
21511
21512.1
21512.2
21513.1
21513.2
21514.1
21514.2
21515
20510.1
20510.2
20509
20511
20507
20507.1
20507.2
20508.1
20508.2
21501.1
21501.2
21502.1
21502.2
21503.1
21503.2
21504.1
21504.2
21505.1
21505.2
20502.1
20502.2
20503.1
20503.2
20504.1
20504.2
20505.1
20505.2
20501.1
20501.2
19502.1
19502.2
19503.1
19503.2
19504.1
19504.2
19501.1
19501.2
19505.1
19505.2
18502.1
18502.2
18502.3
18503.1
18503.2
18504.1
18504.2
18504.3
18501.1
18501.2
21523
20523
19523
21804
21805
21806
21816
21817
21818.1
21818.2
21801
21802
21822
21823
21824
21825
21825.1
21825.2
21808
21809
21812.1
21812.2
20804
20805
20806
20816
20817
20818.1
20818.2
20801
20802
20803
20821
20822
20823
20824
20808
20809
20812.1
20812.2
19804
19805
19806
19816
19817
19818.1
19818.2
19801
19802
19803
19822
19823
19824
19825
19825.1
19825.2
19808
19809
19810.1
19810.2
19812.1
19812.2
18804
18805
18806
18816
18817
18818.1
18818.2
18801
18802
18803
18821.1
18821.2
18822
18823
18824
18825
18826.1
18826.2
18827.1
18827.2
18808
18809
18812.1
18812.2
21831
21832
21834
21835
21836.1
21836.2
21836.3
21837
21838
20831
20832
20834
20835
20836
20837
20838
21844
21841
21846
21849
21603.1
21603.2
21603.3
21604.1
21604.2
21604.3
21605.1
21605.2
20603.1
20603.2
20603.3
20604.1
20604.2
20604.3
20605.1
20605.2
20605.3
20605.4
20605.5
19603.1
19603.2
19603.3
19604.1
19604.2
19604.3
19605.1
19605.2
18603.1
18603.2
18604.1
18604.2
18605
17603
17604
17605
16451
16452
16454
16455
21601.1
21601.2
21601.3
20601.1
20601.2
20601.3
19601.1
19601.2
18601.1
18601.2
21614
20614
21910.1
21910.2
21901.1
21901.2
21902.1
21902.2
21903.1
21903.2
20910.1
20910.2
20901.1
20901.2
20902.1
20902.2
20903.1
20903.2
19910.1
19910.2
19901
19902
19903
18910.1
18910.2
18902
18903
18904
21111
21112
21114
21121
21122
21123
21124
21125
21131
21132
21133
21134
21135
21136
21137
21141
21142
21144
20112
20113
20114
20121
20122
20123
20125
20126
20131
20132
20133
20134
20135
20136
20137
20141
20142
20143
20144
19111
19112
19114
19121
19122
19123
19124
19141
19142
19144
19131
19132
19133
19134
19137
18111.1
18111.2
18121.1
18121.2
18122.1
18122.2
18123.1
18123.2
18141.1
18141.2
18142.1
18142.2
18131.1
18131.2
18132.1
18132.2
18133.1
18133.2
18134.1
18134.2
21151.1
21151.2
21152.1
21152.2
21153.1
21153.2
21154.1
21154.2
21161.1
21161.2
21171
21181.1
21181.2
20151.1
20151.2
20152.1
20152.2
20153.1
20153.2
20161.1
20161.2
20171.1
20171.2
20181.1
20181.2
21404.1
21404.2
21404.3
21405.1
21405.2
21405.3
21406.1
21406.2
21406.3
21400.1
21400.2
21400.3
21401.1
21401.2
21401.3
21402.1
21402.2
21402.3
21403.1
21403.2
21403.3
20404.1
20404.2
20404.3
20404.4
20405.1
20405.2
20405.3
20405.4
19404.1
19404.2
19404.3
19404.4
19405.1
19405.2
19405.3
19405.4
18401á
18402á
18403á
18404á
18405á
18406á
18407á
21423
21424
21425
21426
21427
21428
21430
21401ì
21402ì
21403ì
21404ì
21405ì
21406ì
21407ì
21415ì
21416ì
21417ì
21418ì
21419ì
21420ì
21421ì
20401.1
20401.2
20401.3
20401.4
20402.1
20402.2
20402.3
20402.4
20403.1
20403.2
20403.3
20403.4
19401.1
19401.2
19401.3
19401.4
19402.1
19402.2
19402.3
19403.1
19403.2
19403.3
19403.4
18401ñ
18402ñ
18403ñ
18404ñ
18405ñ
18406ñ
18407ñ
21201
21202
21203
21204
21205
21206
21207
21208
21209
21210
21211
21212
21213
21214
21215
21216
20201
20202
20203
20204
20205
20206
20207
20208
20209
20210
20211
20212
20213
20214
20215
19201
19202
19203
19204
19205
19206
19207
19208
19209
19210
19211
19212
19213
19214
18201
18202
18203
18204
18205
18206
18207
18208
18209
18210
18213
21221
21222
21223
21224
21225
20221
20222
20223
20225
21231
21232
20231
20232
19231
19232
18231
18232
21301
21302
21303
21304
21305
21306
21307
21308
21309
21310
21311
21312
21313
21314
20301
20302
20303
20304
20305
20306
20307
20308
20309
20310
20311
20312
20313
20314
19341
19342
19343
19344
19345
19346
19347
19348
19349
19350
19351
19352
19353
19355
18341
18342
18343
18344
18345
18346
18347
18348
18349
18350
18351
18352
18353
18355
21361
21362
21363
21364
21365
21366
21367
21368
21369
21370
21371
21372
21373
21374
21375
21376
21377
21378
20361
20362
20363
20364
20365
20366
20367.1
20367.2
20368
20369
20370
20371
20372
20373
20374
20375
20376
20377
21381
21382
21383
21384
21385
21386
21387
21388
21389
21390
21391
21392
21393
21394
21395
20381
20382
20384
20386
20388
20390
20391
20392
20394
19382
19384
19386
19388
19390
19391
19392
19394
21704.1
21704.2
21706.1
21706.2
21709.1
21709.2
21710.1
21710.2
21705.1
21705.2
21701.1
21701.2
21702.1
21702.2
21703.1
21703.2
21707.1
21707.2
20704.1
20704.2
20706.1
20706.2
20709.1
20709.2
20710.1
20710.2
20705.1
20705.2
20701.1
20701.2
20702.1
20702.2
20703.1
20703.2
20707.1
20707.2
19704.1
19704.2
19706.1
19706.2
19709.1
19709.2
19710.1
19710.2
19705.1
19705.2
19701.1
19701.2
19702.1
19702.2
19703.1
19703.2
19707.1
19707.2
19708.1
19708.2
18704.1
18704.2
18706.1
18706.2
18709.1
18709.2
18710.1
18710.2
18705.1
18705.2
18701.1
18701.2
18702.1
18702.2
18703.1
18703.2
18707.1
18707.2
18708.1
18708.2
21719
21723
21715
21711
21712
21717
20719
20723
20722
20715
20711
20717
21755
21751
20751
